0 0 0 0
0 1 0 0
0 2 0 0
0 3 0 0
0 4 0 1
0 5 0 4
0 6 0 3
0 7 0 4
0 8 0 1
0 9 0 4
0 10 1 15
0 11 1 8
0 12 0 10
0 13 0 9
0 14 0 9
0 15 0 9
0 16 1 5
0 17 0 12
0 18 2 16
0 19 0 10
0 20 0 14
0 21 0 8
0 22 0 10
0 23 0 17
0 24 0 19
0 25 2 24
0 26 0 23
0 27 0 16
0 28 1 27
0 29 0 26
0 30 0 25
0 31 0 31
